111256.0
1666
4 7 10 11 13 14 17 19 20 22 26 29 32 33 34 35 37 39 42 49 50 51 54 55 59 60 61 66 68 71 79 81 87 89 91 93 95 97 102 103 105 106 107 110 115 116 120 121 123 126 135 137 138 140 145 147 148 150 151 152 154 155 156 157 158 159 163 166 168 170 172 173 174 175 177 179 182 183 190 193 194 195 196 197 